p ds 216 338
1 83
1 142
1 166
2 183
2 92
2 3
2 60
3 103
3 173
3 15
4 25
4 5
4 92
4 94
5 25
5 80
5 95
6 215
6 216
6 212
7 88
7 216
7 212
8 9
8 142
9 10
9 84
9 85
10 83
10 107
11 161
11 163
11 143
11 108
12 143
12 13
12 177
13 206
13 208
13 14
14 198
14 207
15 64
15 172
16 38
16 39
16 150
17 18
17 117
17 127
18 19
18 101
18 164
19 20
19 112
19 113
20 165
21 22
21 28
22 29
23 102
24 116
24 145
24 86
26 27
26 94
27 28
28 93
28 29
29 30
30 93
30 102
30 104
31 32
31 211
32 211
32 167
33 81
33 82
33 167
34 119
34 35
34 109
35 36
36 37
37 38
38 41
38 150
38 151
38 152
39 124
39 138
39 140
39 40
40 41
41 151
42 141
42 152
43 71
43 192
43 205
44 110
44 45
44 55
45 46
45 53
46 47
46 51
47 48
47 49
48 123
48 181
48 49
49 50
49 51
50 181
50 52
51 52
51 53
52 54
53 54
53 55
54 149
55 56
55 87
56 125
56 149
57 118
57 110
57 58
58 59
58 87
59 185
59 69
59 125
60 61
61 182
61 183
62 114
62 86
63 66
63 73
63 171
64 65
64 171
65 76
65 170
66 74
66 157
66 170
67 68
67 70
67 107
68 69
68 126
69 81
70 82
70 107
71 175
71 176
72 73
72 75
72 209
73 74
73 210
74 75
74 134
75 135
76 77
76 211
76 169
77 78
78 79
79 184
80 95
81 185
82 83
83 84
84 142
86 115
87 125
88 212
89 90
89 186
89 215
90 114
90 188
91 190
91 191
91 179
92 95
92 180
93 94
93 103
94 180
96 113
96 97
96 101
97 98
97 102
98 99
98 106
99 100
99 148
100 101
100 148
103 104
103 180
104 105
104 174
105 106
105 175
106 176
107 144
108 160
108 162
109 138
110 118
111 112
111 145
112 164
113 165
114 115
115 116
115 188
116 117
116 127
117 145
117 164
118 120
119 147
120 168
120 169
121 122
121 153
121 169
122 123
122 137
123 139
123 136
124 139
124 143
124 144
125 126
126 149
126 144
127 148
128 189
128 190
128 191
129 187
129 130
129 133
130 189
130 131
131 191
131 132
132 133
132 147
133 187
134 157
134 162
134 135
135 163
136 158
136 146
136 137
137 153
139 181
139 146
140 141
141 152
146 159
148 190
148 178
150 151
153 154
154 155
154 158
155 156
155 160
156 157
156 162
158 159
158 160
159 161
160 161
162 163
166 167
167 168
168 185
168 211
169 170
170 171
171 172
172 198
172 173
173 174
174 175
175 176
176 177
177 178
178 179
179 213
182 184
183 184
186 187
186 188
186 214
188 189
192 193
192 205
193 194
193 204
194 195
194 203
195 196
195 202
196 197
196 201
197 198
197 206
198 199
199 200
199 207
200 210
201 202
201 206
202 203
203 204
204 205
207 208
207 210
208 209
209 210
213 214
213 216
214 215
